c A SAT instance generated from a 3-CNF formula that had 48 clauses and 12 variables
p cnf 12 48
-6 -8 -11 0
12 4 1 0
8 10 -11 0
6 -3 9 0
9 12 10 0
-4 6 -9 0
5 1 3 0
-6 3 -10 0
-4 -12 -6 0
-11 8 -2 0
-6 -10 -3 0
11 -6 -4 0
-2 5 4 0
-7 -2 4 0
4 -6 2 0
5 -1 8 0
9 8 11 0
4 8 -5 0
-6 -10 -8 0
-2 4 7 0
-11 7 -4 0
-10 11 9 0
-12 8 -9 0
-3 -8 -6 0
-12 -8 -11 0
5 -6 3 0
7 -11 10 0
-12 -11 10 0
5 -9 -12 0
9 12 -6 0
9 -11 5 0
-8 1 -4 0
9 -8 6 0
3 -11 -10 0
12 -10 -4 0
-6 -9 12 0
4 -3 -12 0
-12 -6 10 0
-5 -2 8 0
12 5 1 0
-11 -8 -7 0
-2 10 11 0
-1 11 -10 0
1 -11 -12 0
3 -12 5 0
-12 5 -1 0
-3 8 4 0
12 -7 4 0
